49
2 47 118 
2 71 31 
2 69 28 
2 106 60 
2 75 39 
2 79 94 
2 10 35 
2 86 90 
2 78 116 
2 7 40 
2 27 105 
2 1 97 
2 19 54 
2 17 15 
2 101 93 
2 114 64 
2 55 45 
2 51 43 
2 6 24 
3 83 5 26 
3 50 89 20 
3 110 56 2 
2 16 49 
3 53 113 92 
3 44 117 87 
3 22 32 14 
3 70 61 102 
3 63 66 13 
3 68 74 104 
3 84 41 91 
3 77 111 99 
3 3 62 11 
3 96 103 4 
3 9 23 82 
3 73 58 115 
3 85 80 95 
3 38 107 67 
3 112 29 81 
3 36 98 21 
2 30 8 
3 57 119 33 
3 65 52 100 
2 59 12 
3 42 108 46 
2 25 109 
2 120 88 
1 48 
3 18 34 37 
2 72 76 
